certificates/rado_a15_c116_N43.cnf
c Rad2 upper bound instance: x1 + 15*x2 - x3 = 116, interval [1,43]
p cnf 43 246
1 5 8 0
-1 -5 -8 0
1 9 20 0
-1 -9 -20 0
1 10 35 0
-1 -10 -35 0
2 6 8 0
-2 -6 -8 0
2 9 21 0
-2 -9 -21 0
2 10 36 0
-2 -10 -36 0
3 7 8 0
-3 -7 -8 0
3 9 22 0
-3 -9 -22 0
3 10 37 0
-3 -10 -37 0
4 8 0
-4 -8 0
4 9 23 0
-4 -9 -23 0
4 10 38 0
-4 -10 -38 0
5 8 9 0
-5 -8 -9 0
5 9 24 0
-5 -9 -24 0
5 10 39 0
-5 -10 -39 0
6 8 10 0
-6 -8 -10 0
6 9 25 0
-6 -9 -25 0
6 10 40 0
-6 -10 -40 0
7 8 11 0
-7 -8 -11 0
7 9 26 0
-7 -9 -26 0
7 10 41 0
-7 -10 -41 0
8 12 0
-8 -12 0
8 9 27 0
-8 -9 -27 0
8 10 42 0
-8 -10 -42 0
8 9 13 0
-8 -9 -13 0
9 28 0
-9 -28 0
9 10 43 0
-9 -10 -43 0
8 10 14 0
-8 -10 -14 0
9 10 29 0
-9 -10 -29 0
8 11 15 0
-8 -11 -15 0
9 11 30 0
-9 -11 -30 0
1 7 12 0
-1 -7 -12 0
8 12 16 0
-8 -12 -16 0
9 12 31 0
-9 -12 -31 0
2 7 13 0
-2 -7 -13 0
8 13 17 0
-8 -13 -17 0
9 13 32 0
-9 -13 -32 0
3 7 14 0
-3 -7 -14 0
8 14 18 0
-8 -14 -18 0
9 14 33 0
-9 -14 -33 0
4 7 15 0
-4 -7 -15 0
8 15 19 0
-8 -15 -19 0
9 15 34 0
-9 -15 -34 0
5 7 16 0
-5 -7 -16 0
8 16 20 0
-8 -16 -20 0
9 16 35 0
-9 -16 -35 0
6 7 17 0
-6 -7 -17 0
8 17 21 0
-8 -17 -21 0
9 17 36 0
-9 -17 -36 0
7 18 0
-7 -18 0
8 18 22 0
-8 -18 -22 0
9 18 37 0
-9 -18 -37 0
7 8 19 0
-7 -8 -19 0
8 19 23 0
-8 -19 -23 0
9 19 38 0
-9 -19 -38 0
7 9 20 0
-7 -9 -20 0
8 20 24 0
-8 -20 -24 0
9 20 39 0
-9 -20 -39 0
7 10 21 0
-7 -10 -21 0
8 21 25 0
-8 -21 -25 0
9 21 40 0
-9 -21 -40 0
7 11 22 0
-7 -11 -22 0
8 22 26 0
-8 -22 -26 0
9 22 41 0
-9 -22 -41 0
7 12 23 0
-7 -12 -23 0
8 23 27 0
-8 -23 -27 0
9 23 42 0
-9 -23 -42 0
7 13 24 0
-7 -13 -24 0
8 24 28 0
-8 -24 -28 0
9 24 43 0
-9 -24 -43 0
7 14 25 0
-7 -14 -25 0
8 25 29 0
-8 -25 -29 0
7 15 26 0
-7 -15 -26 0
8 26 30 0
-8 -26 -30 0
1 6 27 0
-1 -6 -27 0
7 16 27 0
-7 -16 -27 0
8 27 31 0
-8 -27 -31 0
2 6 28 0
-2 -6 -28 0
7 17 28 0
-7 -17 -28 0
8 28 32 0
-8 -28 -32 0
3 6 29 0
-3 -6 -29 0
7 18 29 0
-7 -18 -29 0
8 29 33 0
-8 -29 -33 0
4 6 30 0
-4 -6 -30 0
7 19 30 0
-7 -19 -30 0
8 30 34 0
-8 -30 -34 0
5 6 31 0
-5 -6 -31 0
7 20 31 0
-7 -20 -31 0
8 31 35 0
-8 -31 -35 0
6 32 0
-6 -32 0
7 21 32 0
-7 -21 -32 0
8 32 36 0
-8 -32 -36 0
6 7 33 0
-6 -7 -33 0
7 22 33 0
-7 -22 -33 0
8 33 37 0
-8 -33 -37 0
6 8 34 0
-6 -8 -34 0
7 23 34 0
-7 -23 -34 0
8 34 38 0
-8 -34 -38 0
6 9 35 0
-6 -9 -35 0
7 24 35 0
-7 -24 -35 0
8 35 39 0
-8 -35 -39 0
6 10 36 0
-6 -10 -36 0
7 25 36 0
-7 -25 -36 0
8 36 40 0
-8 -36 -40 0
6 11 37 0
-6 -11 -37 0
7 26 37 0
-7 -26 -37 0
8 37 41 0
-8 -37 -41 0
6 12 38 0
-6 -12 -38 0
7 27 38 0
-7 -27 -38 0
8 38 42 0
-8 -38 -42 0
6 13 39 0
-6 -13 -39 0
7 28 39 0
-7 -28 -39 0
8 39 43 0
-8 -39 -43 0
6 14 40 0
-6 -14 -40 0
7 29 40 0
-7 -29 -40 0
6 15 41 0
-6 -15 -41 0
7 30 41 0
-7 -30 -41 0
1 5 42 0
-1 -5 -42 0
6 16 42 0
-6 -16 -42 0
7 31 42 0
-7 -31 -42 0
2 5 43 0
-2 -5 -43 0
6 17 43 0
-6 -17 -43 0
7 32 43 0
-7 -32 -43 0
