certificates/rado_a15_c116_N43.drat
-38 8 0
10 8 -40 0
-39 -40 -43 0
-10 -40 -42 -43 0
-40 -42 -43 0
d -10 -40 -42 -43 0
-8 10 -42 0
10 -41 40 -42 0
-41 -42 40 0
d 10 -41 40 -42 0
-10 -42 -43 0
-42 -43 0
d -40 -42 -43 0
10 -43 0
-8 -43 0
8 42 0
d 38 8 42 0
-43 0
-10 8 0
8 0
-4 0
-12 0
6 10 0
d 6 40 10 0
10 0
-42 0
-14 0
-6 0
32 0
40 0
16 0
17 0
30 0
38 0
-36 0
-28 0
-20 0
-21 0
-13 0
-34 0
-26 0
9 0
2 0
39 0
-27 0
-29 0
-19 0
-5 0
-35 0
-11 0
1 0
3 0
31 0
37 0
-7 0
0
